data;

# number of cities
param n := 7;

param costs :=
1 12
2 8
3 12
4 10
5 9
6 10
7 7;

param max_distance := 20;

param distance_matrix :
  1   2   3   4  5   6    7 :=
1 0 19 18 22 13 31 23
2 19 0 17 22 23 14 32
3 18 17 0 14 21 31 32
4 22 22 14 0 29 13 17
5 13 23 21 29 0 22 19
6 31 14 31 13 22 0 26
7 23 32 32 17 19 26 0;

end;
